
Gurobi 9.1.2 (linux64, gurobi_cl) logging started Fri Jul 30 13:54:27 2021

Using license file /opt/gurobi/gurobi.lic
Set parameter TimeLimit to value 600
Set parameter Heuristics to value 0.1
Set parameter LogFile to value 912-Heuristics0.1-glass4-0.log

Gurobi Optimizer version 9.1.2 build v9.1.2rc0 (linux64)
Copyright (c) 2021, Gurobi Optimization, LLC

Read MPS format model from file /nfs/models/mip/glass4.mps.bz2
Reading time = 0.00 seconds
glass4: 396 rows, 322 columns, 1815 nonzeros
Thread count: 4 physical cores, 8 logical processors, using up to 8 threads
Optimize a model with 396 rows, 322 columns and 1815 nonzeros
Model fingerprint: 0x0a9d9037
Variable types: 20 continuous, 302 integer (0 binary)
Coefficient statistics:
  Matrix range     [1e+00, 8e+06]
  Objective range  [1e+00, 1e+06]
  Bounds range     [1e+00, 8e+02]
  RHS range        [1e+00, 8e+06]
Presolve removed 6 rows and 6 columns
Presolve time: 0.00s
Presolved: 390 rows, 316 columns, 1803 nonzeros
Variable types: 19 continuous, 297 integer (297 binary)
Found heuristic solution: objective 3.133356e+09

Root relaxation: objective 8.000024e+08, 72 iterations, 0.00 seconds

    Nodes    |    Current Node    |     Objective Bounds      |     Work
 Expl Unexpl |  Obj  Depth IntInf | Incumbent    BestBd   Gap | It/Node Time

     0     0 8.0000e+08    0   72 3.1334e+09 8.0000e+08  74.5%     -    0s
H    0     0                    2.200019e+09 8.0000e+08  63.6%     -    0s
H    0     0                    2.000016e+09 8.0000e+08  60.0%     -    0s
     0     0 8.0000e+08    0   72 2.0000e+09 8.0000e+08  60.0%     -    0s
     0     0 8.0000e+08    0   81 2.0000e+09 8.0000e+08  60.0%     -    0s
     0     0 8.0000e+08    0   79 2.0000e+09 8.0000e+08  60.0%     -    0s
     0     2 8.0000e+08    0   78 2.0000e+09 8.0000e+08  60.0%     -    0s
H   78   212                    2.000016e+09 8.0000e+08  60.0%  10.6    0s
H  220   254                    1.900016e+09 8.0000e+08  57.9%   7.9    0s
H  277   579                    1.850016e+09 8.0000e+08  56.8%   7.0    0s
H  543   579                    1.800015e+09 8.0000e+08  55.6%   6.6    0s
H  898   845                    1.800015e+09 8.0000e+08  55.6%   7.0    0s
H  899   845                    1.800015e+09 8.0000e+08  55.6%   7.0    0s
H 1290  1090                    1.700014e+09 8.0001e+08  52.9%  10.0    0s
H 1305  1047                    1.666681e+09 8.0001e+08  52.0%  10.0    1s
H 1440  1074                    1.650015e+09 8.0001e+08  51.5%  10.9    1s
* 1538  1077              52    1.633349e+09 8.0001e+08  51.0%  11.6    1s
* 1788  1136              66    1.600015e+09 8.0001e+08  50.0%  12.7    1s
H 2131  1155                    1.566680e+09 8.0001e+08  48.9%  17.5    2s
H 2132  1111                    1.500013e+09 8.0001e+08  46.7%  17.5    2s
  6125  2654 infeasible   54      1.5000e+09 8.5980e+08  42.7%  29.6    5s
* 8245  3066              59    1.480016e+09 9.0001e+08  39.2%  30.9    5s
*13667  4497              70    1.433346e+09 1.0000e+09  30.2%  35.7    8s
*14407  4492              52    1.400013e+09 1.0000e+09  28.6%  35.8    8s
 16815  4745 infeasible   27      1.4000e+09 1.0000e+09  28.6%  38.3   10s
*19857  4957              55    1.400013e+09 1.0000e+09  28.6%  38.9   11s
H20921  4990                    1.400013e+09 1.0000e+09  28.6%  39.0   12s
*23137  5082              53    1.400013e+09 1.1000e+09  21.4%  39.1   13s
 25797  5769 infeasible   45      1.4000e+09 1.1000e+09  21.4%  40.0   15s
H30011  5690                    1.266680e+09 1.1000e+09  13.2%  40.0   19s
H30011  5405                    1.200013e+09 1.1000e+09  8.33%  40.0   19s
 30019  5411 1.2000e+09   47  129 1.2000e+09 1.1000e+09  8.33%  40.0   20s
 30072  5446 1.1000e+09   32  133 1.2000e+09 1.1000e+09  8.33%  39.9   25s
 30122  5479 1.1000e+09   39  139 1.2000e+09 1.1000e+09  8.33%  39.9   30s
 30173  5513 1.2000e+09   37  145 1.2000e+09 1.1000e+09  8.33%  39.8   35s
 30270  5540 1.1000e+09   33   59 1.2000e+09 1.1000e+09  8.33%  41.1   40s

Cutting planes:
  Gomory: 1
  Cover: 2
  Implied bound: 6
  MIR: 145
  Flow cover: 55
  Zero half: 1
  RLT: 2
  Relax-and-lift: 9

Explored 30469 nodes (1261948 simplex iterations) in 41.29 seconds
Thread count was 8 (of 8 available processors)

Solution count 10: 1.20001e+09 1.26668e+09 1.40001e+09 ... 1.56668e+09

Optimal solution found (tolerance 1.00e-04)
Best objective 1.200012600000e+09, best bound 1.200012600000e+09, gap 0.0000%
